

******************************************************************************
This program contains Ipopt, a library for large-scale nonlinear optimization.
 Ipopt is released as open source code under the Eclipse Public License (EPL).
         For more information visit https://github.com/coin-or/Ipopt
******************************************************************************

This is Ipopt version 3.14.11, running with linear solver MUMPS 5.5.1.

Number of nonzeros in equality constraint Jacobian...:        0
Number of nonzeros in inequality constraint Jacobian.:        0
Number of nonzeros in Lagrangian Hessian.............:       99

Total number of variables............................:       50
                     variables with only lower bounds:        0
                variables with lower and upper bounds:        0
                     variables with only upper bounds:        0
Total number of equality constraints.................:        0
Total number of inequality constraints...............:        0
        inequality constraints with only lower bounds:        0
   inequality constraints with lower and upper bounds:        0
        inequality constraints with only upper bounds:        0

iter    objective    inf_pr   inf_du lg(mu)  ||d||  lg(rg) alpha_du alpha_pr  ls
   0  7.6358400e+03 0.00e+00 1.00e+02  -1.0 0.00e+00    -  0.00e+00 0.00e+00   0
   1  1.2438582e+03 0.00e+00 2.50e+01  -1.0 9.60e-01    -  1.00e+00 1.00e+00f  1
   2  2.1797529e+02 0.00e+00 5.31e+00  -1.0 5.77e-01    -  1.00e+00 1.00e+00f  1
   3  7.6603826e+01 0.00e+00 2.21e+00  -1.0 3.17e-01    -  1.00e+00 1.00e+00f  1
   4  5.0948838e+01 0.00e+00 8.18e-01  -1.0 2.55e-01    -  1.00e+00 1.00e+00f  1
   5  5.0162953e+01 0.00e+00 1.84e+00  -1.7 5.85e-01    -  1.00e+00 1.00e+00f  1
   6  4.5745862e+01 0.00e+00 1.61e-01  -1.7 3.51e-01    -  1.00e+00 1.00e+00f  1
   7  4.5120131e+01 0.00e+00 4.06e-01  -2.5 1.30e+02  -2.0 1.00e+00 1.95e-03f 10
   8  4.4195716e+01 0.00e+00 6.99e-01  -2.5 7.67e-01    -  1.00e+00 5.00e-01f  2
   9  4.3011196e+01 0.00e+00 7.29e-01  -2.5 4.25e-01    -  1.00e+00 1.00e+00f  1
iter    objective    inf_pr   inf_du lg(mu)  ||d||  lg(rg) alpha_du alpha_pr  ls
  10  4.1295503e+01 0.00e+00 8.37e-01  -2.5 4.03e-01    -  1.00e+00 1.00e+00f  1
  11  3.9778619e+01 0.00e+00 7.89e-01  -2.5 4.77e-01    -  1.00e+00 1.00e+00f  1
  12  3.8338238e+01 0.00e+00 1.48e+00  -2.5 4.07e-01    -  1.00e+00 1.00e+00f  1
  13  3.5109713e+01 0.00e+00 5.27e-01  -2.5 3.36e-01    -  1.00e+00 1.00e+00f  1
  14  3.3468946e+01 0.00e+00 8.85e-01  -2.5 3.93e-01    -  1.00e+00 1.00e+00f  1
  15  3.1183149e+01 0.00e+00 6.29e-01  -2.5 5.39e-01    -  1.00e+00 1.00e+00f  1
  16  2.9383191e+01 0.00e+00 8.81e-01  -2.5 5.99e-01    -  1.00e+00 5.00e-01f  2
  17  2.7384424e+01 0.00e+00 6.58e-01  -2.5 2.87e-01    -  1.00e+00 1.00e+00f  1
  18  2.5395476e+01 0.00e+00 6.23e-01  -2.5 3.07e-01    -  1.00e+00 1.00e+00f  1
  19  2.3657492e+01 0.00e+00 7.04e-01  -2.5 3.99e-01    -  1.00e+00 1.00e+00f  1
iter    objective    inf_pr   inf_du lg(mu)  ||d||  lg(rg) alpha_du alpha_pr  ls
  20  2.1684324e+01 0.00e+00 9.64e-01  -2.5 3.23e-01    -  1.00e+00 1.00e+00f  1
  21  1.9793561e+01 0.00e+00 4.32e-01  -2.5 2.57e-01    -  1.00e+00 1.00e+00f  1
  22  1.8887301e+01 0.00e+00 1.31e+00  -2.5 2.44e-01    -  1.00e+00 1.00e+00f  1
  23  1.7494721e+01 0.00e+00 2.36e-01  -2.5 1.54e-01    -  1.00e+00 1.00e+00f  1
  24  1.6901095e+01 0.00e+00 1.38e+00  -2.5 9.36e-01    -  1.00e+00 2.50e-01f  3
  25  1.5486424e+01 0.00e+00 5.44e-01  -2.5 3.74e-01    -  1.00e+00 1.00e+00f  1
  26  1.4577380e+01 0.00e+00 4.92e-01  -2.5 4.52e-01    -  1.00e+00 5.00e-01f  2
  27  1.3913414e+01 0.00e+00 1.08e+00  -2.5 2.45e-01    -  1.00e+00 1.00e+00f  1
  28  1.2883086e+01 0.00e+00 2.88e-01  -2.5 1.97e-01    -  1.00e+00 1.00e+00f  1
  29  1.2775561e+01 0.00e+00 2.32e+00  -2.5 7.02e-01    -  1.00e+00 5.00e-01f  2
iter    objective    inf_pr   inf_du lg(mu)  ||d||  lg(rg) alpha_du alpha_pr  ls
  30  1.0774461e+01 0.00e+00 2.26e-01  -2.5 3.32e-01    -  1.00e+00 1.00e+00f  1
  31  1.0131002e+01 0.00e+00 7.43e-01  -2.5 5.35e-01    -  1.00e+00 5.00e-01f  2
  32  9.1104403e+00 0.00e+00 4.04e-01  -2.5 2.56e-01    -  1.00e+00 1.00e+00f  1
  33  8.4487669e+00 0.00e+00 7.84e-01  -2.5 3.36e-01    -  1.00e+00 1.00e+00f  1
  34  7.0114911e+00 0.00e+00 4.75e-01  -2.5 3.53e-01    -  1.00e+00 1.00e+00f  1
  35  6.2290327e+00 0.00e+00 6.05e-01  -2.5 5.98e-01    -  1.00e+00 1.00e+00f  1
  36  4.7699312e+00 0.00e+00 1.47e+00  -2.5 3.94e-01    -  1.00e+00 1.00e+00f  1
  37  1.2024277e+00 0.00e+00 1.07e+00  -2.5 1.14e+00    -  1.00e+00 5.00e-01f  2
  38  3.6744053e-01 0.00e+00 2.62e-01  -2.5 4.02e-01    -  1.00e+00 1.00e+00f  1
  39  9.0751404e-03 0.00e+00 2.98e-02  -2.5 1.17e-01    -  1.00e+00 1.00e+00f  1
iter    objective    inf_pr   inf_du lg(mu)  ||d||  lg(rg) alpha_du alpha_pr  ls
  40  1.2082566e-05 0.00e+00 1.29e-03  -2.5 2.25e-02    -  1.00e+00 1.00e+00f  1
  41  2.7647568e-11 0.00e+00 2.32e-06  -5.7 8.52e-04    -  1.00e+00 1.00e+00f  1
  42  1.5393689e-22 0.00e+00 5.96e-12  -8.6 1.27e-06    -  1.00e+00 1.00e+00f  1

Number of Iterations....: 42

                                   (scaled)                 (unscaled)
Objective...............:   1.1841298978287204e-23    1.5393688671773364e-22
Dual infeasibility......:   5.9631984820297203e-12    7.7521580266386371e-11
Constraint violation....:   0.0000000000000000e+00    0.0000000000000000e+00
Variable bound violation:   0.0000000000000000e+00    0.0000000000000000e+00
Complementarity.........:   0.0000000000000000e+00    0.0000000000000000e+00
Overall NLP error.......:   5.9631984820297203e-12    7.7521580266386371e-11


Number of objective function evaluations             = 92
Number of objective gradient evaluations             = 43
Number of equality constraint evaluations            = 0
Number of inequality constraint evaluations          = 0
Number of equality constraint Jacobian evaluations   = 0
Number of inequality constraint Jacobian evaluations = 0
Number of Lagrangian Hessian evaluations             = 42
Total seconds in IPOPT                               = 0.039

EXIT: Optimal Solution Found.
 
Ipopt 3.14.11: Optimal Solution Found
